#pLT is two-dimensional [i,r]=[component, individual]
#[i,*] means all data in row i.

param pLT := 
[1,*]
1  0    2  3    3  8    4  5    5  5    6  9    

[2,*]
1  1    2  5    3  4    4  4    5  6    6  4    
;